(set-logic ALL)
(set-option :produce-models true)
(declare-sort BoundSet 0)
(declare-sort UnboundSet 0)
(set-option :finite-model-find true)
(declare-fun JustMovedTo (BoundSet) Bool)
(declare-fun MovedTo (BoundSet BoundSet) Bool)
(declare-fun CannotBeTrusted (BoundSet) Bool)
(assert (not (=> (exists ((a BoundSet)) (exists ((b BoundSet)) (and (JustMovedTo a) (MovedTo a b)))) (exists ((c BoundSet)) (CannotBeTrusted c)))))
(check-sat)
(get-model)